(set-logic QF_NIA)
(define-fun NEGATIVE_INFINITY () Int -1)
(define-fun arcmax ((a Int) (b Int)) Int
   (ite (>= a b) a b))
(define-fun arcsum ((a Int) (b Int)) Int
   (ite (and (> a NEGATIVE_INFINITY)  (> b NEGATIVE_INFINITY)) (+ a b) (ite (<= a NEGATIVE_INFINITY) b a)))
(define-fun arcgg ((a Int) (b Int)) Bool
   (or (> a b) (= a b NEGATIVE_INFINITY)))
(declare-fun a000 () Int)
(declare-fun a001 () Int)
(declare-fun a010 () Int)
(declare-fun a011 () Int)
(declare-fun a100 () Int)
(declare-fun a101 () Int)
(declare-fun a110 () Int)
(declare-fun a111 () Int)
(declare-fun a200 () Int)
(declare-fun a201 () Int)
(declare-fun a210 () Int)
(declare-fun a211 () Int)
(declare-fun a300 () Int)
(declare-fun a301 () Int)
(declare-fun a310 () Int)
(declare-fun a311 () Int)
(declare-fun a400 () Int)
(declare-fun a401 () Int)
(declare-fun a410 () Int)
(declare-fun a411 () Int)
(declare-fun a500 () Int)
(declare-fun a501 () Int)
(declare-fun a510 () Int)
(declare-fun a511 () Int)
(declare-fun b000 () Int)
(declare-fun b001 () Int)
(declare-fun b100 () Int)
(declare-fun b101 () Int)
(declare-fun b200 () Int)
(declare-fun b201 () Int)
(declare-fun b300 () Int)
(declare-fun b301 () Int)
(declare-fun b400 () Int)
(declare-fun b401 () Int)
(declare-fun b500 () Int)
(declare-fun b501 () Int)
(assert (> a000 -1))
(assert (>= a001 -1))
(assert (>= a010 -1))
(assert (>= a011 -1))
(assert (> a100 -1))
(assert (>= a101 -1))
(assert (>= a110 -1))
(assert (>= a111 -1))
(assert (> a200 -1))
(assert (>= a201 -1))
(assert (>= a210 -1))
(assert (>= a211 -1))
(assert (> a300 -1))
(assert (>= a301 -1))
(assert (>= a310 -1))
(assert (>= a311 -1))
(assert (> a400 -1))
(assert (>= a401 -1))
(assert (>= a410 -1))
(assert (>= a411 -1))
(assert (> a500 -1))
(assert (>= a501 -1))
(assert (>= a510 -1))
(assert (>= a511 -1))
(assert (or (> b000 -1) (and (= 0 b000) (= 0 b000 ))))
(assert (>= b001 -1))
(assert (or (> b100 -1) (and (= 0 b100) (= 0 b100 ))))
(assert (>= b101 -1))
(assert (or (> b200 -1) (and (= 0 b200) (= 0 b200 ))))
(assert (>= b201 -1))
(assert (or (> b300 -1) (and (= 0 b300) (= 0 b300 ))))
(assert (>= b301 -1))
(assert (or (> b400 -1) (and (= 0 b400) (= 0 b400 ))))
(assert (>= b401 -1))
(assert (or (> b500 -1) (and (= 0 b500) (= 0 b500 ))))
(assert (>= b501 -1))
(assert (and (arcgg (arcmax (arcsum a500 a400) (arcsum a510 a401)) (arcmax (arcsum (arcmax (arcsum (arcmax (arcsum (arcmax (arcsum (arcmax (arcsum a300 a200) (arcsum a310 a201)) a400) (arcsum (arcmax (arcsum a300 a210) (arcsum a310 a211)) a401)) a100) (arcsum (arcmax (arcsum (arcmax (arcsum a300 a200) (arcsum a310 a201)) a410) (arcsum (arcmax (arcsum a300 a210) (arcsum a310 a211)) a411)) a101)) a200) (arcsum (arcmax (arcsum (arcmax (arcsum (arcmax (arcsum a300 a200) (arcsum a310 a201)) a400) (arcsum (arcmax (arcsum a300 a210) (arcsum a310 a211)) a401)) a110) (arcsum (arcmax (arcsum (arcmax (arcsum a300 a200) (arcsum a310 a201)) a410) (arcsum (arcmax (arcsum a300 a210) (arcsum a310 a211)) a411)) a111)) a201)) a100) (arcsum (arcmax (arcsum (arcmax (arcsum (arcmax (arcsum (arcmax (arcsum a300 a200) (arcsum a310 a201)) a400) (arcsum (arcmax (arcsum a300 a210) (arcsum a310 a211)) a401)) a100) (arcsum (arcmax (arcsum (arcmax (arcsum a300 a200) (arcsum a310 a201)) a410) (arcsum (arcmax (arcsum a300 a210) (arcsum a310 a211)) a411)) a101)) a210) (arcsum (arcmax (arcsum (arcmax (arcsum (arcmax (arcsum a300 a200) (arcsum a310 a201)) a400) (arcsum (arcmax (arcsum a300 a210) (arcsum a310 a211)) a401)) a110) (arcsum (arcmax (arcsum (arcmax (arcsum a300 a200) (arcsum a310 a201)) a410) (arcsum (arcmax (arcsum a300 a210) (arcsum a310 a211)) a411)) a111)) a211)) a101)))(arcgg (arcmax (arcsum a500 a410) (arcsum a510 a411)) (arcmax (arcsum (arcmax (arcsum (arcmax (arcsum (arcmax (arcsum (arcmax (arcsum a300 a200) (arcsum a310 a201)) a400) (arcsum (arcmax (arcsum a300 a210) (arcsum a310 a211)) a401)) a100) (arcsum (arcmax (arcsum (arcmax (arcsum a300 a200) (arcsum a310 a201)) a410) (arcsum (arcmax (arcsum a300 a210) (arcsum a310 a211)) a411)) a101)) a200) (arcsum (arcmax (arcsum (arcmax (arcsum (arcmax (arcsum a300 a200) (arcsum a310 a201)) a400) (arcsum (arcmax (arcsum a300 a210) (arcsum a310 a211)) a401)) a110) (arcsum (arcmax (arcsum (arcmax (arcsum a300 a200) (arcsum a310 a201)) a410) (arcsum (arcmax (arcsum a300 a210) (arcsum a310 a211)) a411)) a111)) a201)) a110) (arcsum (arcmax (arcsum (arcmax (arcsum (arcmax (arcsum (arcmax (arcsum a300 a200) (arcsum a310 a201)) a400) (arcsum (arcmax (arcsum a300 a210) (arcsum a310 a211)) a401)) a100) (arcsum (arcmax (arcsum (arcmax (arcsum a300 a200) (arcsum a310 a201)) a410) (arcsum (arcmax (arcsum a300 a210) (arcsum a310 a211)) a411)) a101)) a210) (arcsum (arcmax (arcsum (arcmax (arcsum (arcmax (arcsum a300 a200) (arcsum a310 a201)) a400) (arcsum (arcmax (arcsum a300 a210) (arcsum a310 a211)) a401)) a110) (arcsum (arcmax (arcsum (arcmax (arcsum a300 a200) (arcsum a310 a201)) a410) (arcsum (arcmax (arcsum a300 a210) (arcsum a310 a211)) a411)) a111)) a211)) a111)))(arcgg (arcmax (arcsum a501 a400) (arcsum a511 a401)) (arcmax (arcsum (arcmax (arcsum (arcmax (arcsum (arcmax (arcsum (arcmax (arcsum a301 a200) (arcsum a311 a201)) a400) (arcsum (arcmax (arcsum a301 a210) (arcsum a311 a211)) a401)) a100) (arcsum (arcmax (arcsum (arcmax (arcsum a301 a200) (arcsum a311 a201)) a410) (arcsum (arcmax (arcsum a301 a210) (arcsum a311 a211)) a411)) a101)) a200) (arcsum (arcmax (arcsum (arcmax (arcsum (arcmax (arcsum a301 a200) (arcsum a311 a201)) a400) (arcsum (arcmax (arcsum a301 a210) (arcsum a311 a211)) a401)) a110) (arcsum (arcmax (arcsum (arcmax (arcsum a301 a200) (arcsum a311 a201)) a410) (arcsum (arcmax (arcsum a301 a210) (arcsum a311 a211)) a411)) a111)) a201)) a100) (arcsum (arcmax (arcsum (arcmax (arcsum (arcmax (arcsum (arcmax (arcsum a301 a200) (arcsum a311 a201)) a400) (arcsum (arcmax (arcsum a301 a210) (arcsum a311 a211)) a401)) a100) (arcsum (arcmax (arcsum (arcmax (arcsum a301 a200) (arcsum a311 a201)) a410) (arcsum (arcmax (arcsum a301 a210) (arcsum a311 a211)) a411)) a101)) a210) (arcsum (arcmax (arcsum (arcmax (arcsum (arcmax (arcsum a301 a200) (arcsum a311 a201)) a400) (arcsum (arcmax (arcsum a301 a210) (arcsum a311 a211)) a401)) a110) (arcsum (arcmax (arcsum (arcmax (arcsum a301 a200) (arcsum a311 a201)) a410) (arcsum (arcmax (arcsum a301 a210) (arcsum a311 a211)) a411)) a111)) a211)) a101)))(arcgg (arcmax (arcsum a501 a410) (arcsum a511 a411)) (arcmax (arcsum (arcmax (arcsum (arcmax (arcsum (arcmax (arcsum (arcmax (arcsum a301 a200) (arcsum a311 a201)) a400) (arcsum (arcmax (arcsum a301 a210) (arcsum a311 a211)) a401)) a100) (arcsum (arcmax (arcsum (arcmax (arcsum a301 a200) (arcsum a311 a201)) a410) (arcsum (arcmax (arcsum a301 a210) (arcsum a311 a211)) a411)) a101)) a200) (arcsum (arcmax (arcsum (arcmax (arcsum (arcmax (arcsum a301 a200) (arcsum a311 a201)) a400) (arcsum (arcmax (arcsum a301 a210) (arcsum a311 a211)) a401)) a110) (arcsum (arcmax (arcsum (arcmax (arcsum a301 a200) (arcsum a311 a201)) a410) (arcsum (arcmax (arcsum a301 a210) (arcsum a311 a211)) a411)) a111)) a201)) a110) (arcsum (arcmax (arcsum (arcmax (arcsum (arcmax (arcsum (arcmax (arcsum a301 a200) (arcsum a311 a201)) a400) (arcsum (arcmax (arcsum a301 a210) (arcsum a311 a211)) a401)) a100) (arcsum (arcmax (arcsum (arcmax (arcsum a301 a200) (arcsum a311 a201)) a410) (arcsum (arcmax (arcsum a301 a210) (arcsum a311 a211)) a411)) a101)) a210) (arcsum (arcmax (arcsum (arcmax (arcsum (arcmax (arcsum a301 a200) (arcsum a311 a201)) a400) (arcsum (arcmax (arcsum a301 a210) (arcsum a311 a211)) a401)) a110) (arcsum (arcmax (arcsum (arcmax (arcsum a301 a200) (arcsum a311 a201)) a410) (arcsum (arcmax (arcsum a301 a210) (arcsum a311 a211)) a411)) a111)) a211)) a111)))))
(assert (and (arcgg (arcsum (arcmax (arcsum a500 b400) (arcsum a510 b401)) b500) (arcsum (arcsum (arcsum (arcsum (arcsum (arcmax (arcsum (arcmax (arcsum (arcmax (arcsum (arcmax (arcsum (arcmax (arcsum a300 a200) (arcsum a310 a201)) a400) (arcsum (arcmax (arcsum a300 a210) (arcsum a310 a211)) a401)) a100) (arcsum (arcmax (arcsum (arcmax (arcsum a300 a200) (arcsum a310 a201)) a410) (arcsum (arcmax (arcsum a300 a210) (arcsum a310 a211)) a411)) a101)) a200) (arcsum (arcmax (arcsum (arcmax (arcsum (arcmax (arcsum a300 a200) (arcsum a310 a201)) a400) (arcsum (arcmax (arcsum a300 a210) (arcsum a310 a211)) a401)) a110) (arcsum (arcmax (arcsum (arcmax (arcsum a300 a200) (arcsum a310 a201)) a410) (arcsum (arcmax (arcsum a300 a210) (arcsum a310 a211)) a411)) a111)) a201)) b100) (arcsum (arcmax (arcsum (arcmax (arcsum (arcmax (arcsum (arcmax (arcsum a300 a200) (arcsum a310 a201)) a400) (arcsum (arcmax (arcsum a300 a210) (arcsum a310 a211)) a401)) a100) (arcsum (arcmax (arcsum (arcmax (arcsum a300 a200) (arcsum a310 a201)) a410) (arcsum (arcmax (arcsum a300 a210) (arcsum a310 a211)) a411)) a101)) a210) (arcsum (arcmax (arcsum (arcmax (arcsum (arcmax (arcsum a300 a200) (arcsum a310 a201)) a400) (arcsum (arcmax (arcsum a300 a210) (arcsum a310 a211)) a401)) a110) (arcsum (arcmax (arcsum (arcmax (arcsum a300 a200) (arcsum a310 a201)) a410) (arcsum (arcmax (arcsum a300 a210) (arcsum a310 a211)) a411)) a111)) a211)) b101)) (arcmax (arcsum (arcmax (arcsum (arcmax (arcsum (arcmax (arcsum a300 a200) (arcsum a310 a201)) a400) (arcsum (arcmax (arcsum a300 a210) (arcsum a310 a211)) a401)) a100) (arcsum (arcmax (arcsum (arcmax (arcsum a300 a200) (arcsum a310 a201)) a410) (arcsum (arcmax (arcsum a300 a210) (arcsum a310 a211)) a411)) a101)) b200) (arcsum (arcmax (arcsum (arcmax (arcsum (arcmax (arcsum a300 a200) (arcsum a310 a201)) a400) (arcsum (arcmax (arcsum a300 a210) (arcsum a310 a211)) a401)) a110) (arcsum (arcmax (arcsum (arcmax (arcsum a300 a200) (arcsum a310 a201)) a410) (arcsum (arcmax (arcsum a300 a210) (arcsum a310 a211)) a411)) a111)) b201))) (arcmax (arcsum (arcmax (arcsum (arcmax (arcsum a300 a200) (arcsum a310 a201)) a400) (arcsum (arcmax (arcsum a300 a210) (arcsum a310 a211)) a401)) b100) (arcsum (arcmax (arcsum (arcmax (arcsum a300 a200) (arcsum a310 a201)) a410) (arcsum (arcmax (arcsum a300 a210) (arcsum a310 a211)) a411)) b101))) (arcmax (arcsum (arcmax (arcsum a300 a200) (arcsum a310 a201)) b400) (arcsum (arcmax (arcsum a300 a210) (arcsum a310 a211)) b401))) (arcmax (arcsum a300 b200) (arcsum a310 b201))) b300))(arcgg (arcsum (arcmax (arcsum a501 b400) (arcsum a511 b401)) b501) (arcsum (arcsum (arcsum (arcsum (arcsum (arcmax (arcsum (arcmax (arcsum (arcmax (arcsum (arcmax (arcsum (arcmax (arcsum a301 a200) (arcsum a311 a201)) a400) (arcsum (arcmax (arcsum a301 a210) (arcsum a311 a211)) a401)) a100) (arcsum (arcmax (arcsum (arcmax (arcsum a301 a200) (arcsum a311 a201)) a410) (arcsum (arcmax (arcsum a301 a210) (arcsum a311 a211)) a411)) a101)) a200) (arcsum (arcmax (arcsum (arcmax (arcsum (arcmax (arcsum a301 a200) (arcsum a311 a201)) a400) (arcsum (arcmax (arcsum a301 a210) (arcsum a311 a211)) a401)) a110) (arcsum (arcmax (arcsum (arcmax (arcsum a301 a200) (arcsum a311 a201)) a410) (arcsum (arcmax (arcsum a301 a210) (arcsum a311 a211)) a411)) a111)) a201)) b100) (arcsum (arcmax (arcsum (arcmax (arcsum (arcmax (arcsum (arcmax (arcsum a301 a200) (arcsum a311 a201)) a400) (arcsum (arcmax (arcsum a301 a210) (arcsum a311 a211)) a401)) a100) (arcsum (arcmax (arcsum (arcmax (arcsum a301 a200) (arcsum a311 a201)) a410) (arcsum (arcmax (arcsum a301 a210) (arcsum a311 a211)) a411)) a101)) a210) (arcsum (arcmax (arcsum (arcmax (arcsum (arcmax (arcsum a301 a200) (arcsum a311 a201)) a400) (arcsum (arcmax (arcsum a301 a210) (arcsum a311 a211)) a401)) a110) (arcsum (arcmax (arcsum (arcmax (arcsum a301 a200) (arcsum a311 a201)) a410) (arcsum (arcmax (arcsum a301 a210) (arcsum a311 a211)) a411)) a111)) a211)) b101)) (arcmax (arcsum (arcmax (arcsum (arcmax (arcsum (arcmax (arcsum a301 a200) (arcsum a311 a201)) a400) (arcsum (arcmax (arcsum a301 a210) (arcsum a311 a211)) a401)) a100) (arcsum (arcmax (arcsum (arcmax (arcsum a301 a200) (arcsum a311 a201)) a410) (arcsum (arcmax (arcsum a301 a210) (arcsum a311 a211)) a411)) a101)) b200) (arcsum (arcmax (arcsum (arcmax (arcsum (arcmax (arcsum a301 a200) (arcsum a311 a201)) a400) (arcsum (arcmax (arcsum a301 a210) (arcsum a311 a211)) a401)) a110) (arcsum (arcmax (arcsum (arcmax (arcsum a301 a200) (arcsum a311 a201)) a410) (arcsum (arcmax (arcsum a301 a210) (arcsum a311 a211)) a411)) a111)) b201))) (arcmax (arcsum (arcmax (arcsum (arcmax (arcsum a301 a200) (arcsum a311 a201)) a400) (arcsum (arcmax (arcsum a301 a210) (arcsum a311 a211)) a401)) b100) (arcsum (arcmax (arcsum (arcmax (arcsum a301 a200) (arcsum a311 a201)) a410) (arcsum (arcmax (arcsum a301 a210) (arcsum a311 a211)) a411)) b101))) (arcmax (arcsum (arcmax (arcsum a301 a200) (arcsum a311 a201)) b400) (arcsum (arcmax (arcsum a301 a210) (arcsum a311 a211)) b401))) (arcmax (arcsum a301 b200) (arcsum a311 b201))) b301))))
(check-sat)
(get-model)
(exit)
